original problem has 2000 variables (2000 bin, 0 int, 0 impl, 0 cont) and 5000 constraints
setcovering-small
firstsol
asymmetric
seed: 0
cpu
Traceback (most recent call last):
  File "compute_evaluation_results_scip.py", line 101, in <module>
    run_localbranch.primal_integral_03(
  File "/home/liudefen/projects/ML4LocalBranch_extend/execute_heuristics.py", line 556, in primal_integral_03
    with gzip.open(filename, 'rb') as f:
  File "/home/liudefen/opt/python3.8.0/lib/python3.8/gzip.py", line 58, in open
    binary_file = GzipFile(filename, gz_mode, compresslevel)
  File "/home/liudefen/opt/python3.8.0/lib/python3.8/gzip.py", line 173, in __init__
    fileobj = self.myfileobj = builtins.open(filename, mode or 'rb')
FileNotFoundError: [Errno 2] No such file or directory: './result/generated_instances/setcovering/-small/firstsol/scip/heuristic_mode/lb-from-firstsol-t_total60s-t_node2s-small_lb_baseline_beforenod/seed0/lb-test-setcovering-160_transformed.pkl'
